NAME : rnd15_50.tsp.tsp.opt.tour
TYPE : TOUR
DIMENSION : 50
TOUR_SECTION
1
49
16
10
26
43
5
9
40
2
39
3
42
27
21
36
38
22
13
34
12
11
45
7
41
32
29
8
23
44
37
46
50
17
35
19
31
25
6
4
33
18
15
28
24
48
30
14
47
20
-1